c SAT problem - problem_05.cnf
c Benchmark CNF file for SAT solver testing
c This problem is SATISFIABLE
c Generated for verification testing
c
c Variables: 10
c Clauses: 18
c
p cnf 10 18
1 2 3 0
-1 4 0
-2 5 0
-3 6 0
4 7 0
5 8 0
6 9 0
7 10 0
-4 -5 0
-6 -7 0
-8 -9 0
1 -10 0
2 8 0
3 -4 0
-1 -2 -3 0
5 6 7 0
8 9 10 0
-5 -8 1 0